c uprop, v00.0, 
c reading from data/prog519.c.cnf
c done reading: 0
p cnf 115 344
-57 -62 0
-62 -64 0
57 62 64 0
57 64 -72 0
-57 -64 -72 0
-57 64 72 0
57 -64 72 0
62 -75 0
-62 75 0
-62 -78 0
62 78 0
75 -83 0
-75 83 0
-75 -86 0
75 86 0
83 -92 0
-83 92 0
-60 -83 0
60 83 0
-67 92 0
67 -92 0
-92 -96 0
92 96 0
67 -99 0
-67 99 0
-54 -67 0
54 67 0
-52 99 0
52 -99 0
-49 -99 0
49 99 0
-47 57 0
47 -57 0
45 -64 0
-45 64 0
45 -70 0
57 -70 0
-45 -57 70 0
-45 -57 -73 0
45 57 -73 0
-45 57 73 0
45 -57 73 0
-64 -70 76 0
64 -76 0
70 -76 0
64 70 -76 0
-76 -81 0
64 -76 -81 0
70 -76 -81 0
-64 76 81 0
-70 76 81 0
64 70 -81 0
-76 89 0
76 -89 0
-44 81 0
-44 57 0
44 -57 -81 0
-42 -57 -81 0
-42 57 81 0
42 57 -81 0
42 -57 81 0
-64 -89 0
-44 -89 0
-44 -64 0
40 -89 0
40 -64 0
40 -44 0
40 -44 -64 -89 0
-40 44 64 89 0
-57 -80 0
-64 -80 0
57 64 80 0
57 64 -85 0
-57 -64 -85 0
-57 64 85 0
57 -64 85 0
80 -88 0
-80 88 0
-80 -94 0
80 94 0
-61 88 0
-47 -61 0
47 61 -88 0
47 -69 -88 0
-47 -69 88 0
47 69 88 0
-47 69 -88 0
61 -97 0
-73 -97 0
-61 73 97 0
-61 73 -100 0
61 -73 -100 0
61 73 100 0
-61 -73 100 0
-55 97 0
-42 -55 0
42 55 -97 0
42 -53 -97 0
-42 -53 97 0
42 53 97 0
-42 53 -97 0
-50 55 0
-40 -50 0
40 50 -55 0
40 -55 -101 0
-40 55 -101 0
40 55 101 0
-40 -55 101 0
-48 50 0
48 -50 0
-50 -103 0
50 103 0
-46 48 0
46 -48 0
-48 -104 0
48 104 0
46 -105 0
-46 105 0
-46 -106 0
46 106 0
105 -107 0
-105 107 0
-105 -108 0
105 108 0
107 -109 0
-107 109 0
-107 -110 0
107 110 0
109 -111 0
-109 111 0
-109 -112 0
109 112 0
-58 111 0
58 -111 0
-65 -111 0
65 111 0
-91 -113 0
-113 -115 0
91 113 115 0
-71 91 115 0
-71 -91 -115 0
71 -91 115 0
71 91 -115 0
-74 113 0
74 -113 0
-77 -113 0
77 113 0
74 -82 0
-74 82 0
-38 -74 0
38 74 0
-37 82 0
37 -82 0
-56 -82 0
56 82 0
37 -63 0
-37 63 0
-36 -37 0
36 37 0
-35 63 0
35 -63 0
-34 -63 0
34 63 0
-33 35 0
33 -35 0
-32 -35 0
32 35 0
-31 115 0
-31 91 0
31 -91 -115 0
-90 -91 -115 0
-90 91 115 0
90 91 -115 0
90 -91 115 0
-31 114 -115 0
-114 115 0
31 -114 0
31 -114 115 0
-30 -114 0
-30 -114 115 0
-30 31 -114 0
30 114 -115 0
30 -31 114 0
-30 31 115 0
29 -114 0
-29 114 0
-28 29 0
-28 91 0
28 -29 -91 0
-27 -29 -91 0
-27 29 91 0
27 -29 91 0
27 29 -91 0
26 -28 -115 0
-26 115 0
-26 28 0
-26 28 115 0
-25 -26 0
-25 -26 115 0
-25 -26 28 0
25 26 -115 0
25 26 -28 0
-25 28 115 0
24 -26 0
-24 26 0
25 -59 0
-59 91 0
-25 59 -91 0
-25 -66 -91 0
25 -66 91 0
-25 66 91 0
25 66 -91 0
-24 95 -115 0
-24 -59 95 0
-59 95 -115 0
24 -95 115 0
24 59 -95 0
59 -95 115 0
24 -95 -98 0
-95 -98 115 0
59 -95 -98 0
-24 95 98 0
95 98 -115 0
-59 95 98 0
-24 -59 98 -115 0
24 59 -98 115 0
51 -95 0
-51 95 0
-23 98 0
-23 91 0
23 -91 -98 0
-22 -91 -98 0
-22 91 98 0
22 91 -98 0
22 -91 98 0
-51 -115 0
-23 -51 0
-23 -115 0
21 -51 0
21 -115 0
21 -23 0
21 -23 -51 -115 0
-21 23 51 115 0
-20 -91 0
-20 -90 0
20 90 91 0
-19 90 91 0
-19 -90 -91 0
19 90 -91 0
19 -90 91 0
-18 20 0
-18 -30 0
18 -20 30 0
-17 -20 30 0
-17 20 -30 0
17 20 30 0
17 -20 -30 0
-16 18 0
-16 -27 0
16 -18 27 0
-15 -18 27 0
-15 18 -27 0
15 18 27 0
15 -18 -27 0
-14 16 0
-14 -66 0
14 -16 66 0
-16 -43 66 0
16 -43 -66 0
16 43 66 0
-16 43 -66 0
14 -41 0
-22 -41 0
-14 22 41 0
-13 -14 22 0
-13 14 -22 0
13 14 22 0
13 -14 -22 0
-39 41 0
-21 -39 0
21 39 -41 0
-12 21 -41 0
-12 -21 41 0
12 21 41 0
12 -21 -41 0
-11 39 0
11 -39 0
-10 -39 0
10 39 0
-9 11 0
9 -11 0
-8 -11 0
8 11 0
-7 9 0
7 -9 0
-6 -9 0
6 9 0
-5 7 0
5 -7 0
-4 -7 0
4 7 0
-3 5 0
3 -5 0
-2 -5 0
2 5 0
-1 3 0
1 -3 0
-3 -79 0
3 79 0
1 -84 0
-1 84 0
-1 -87 0
1 87 0
57 -93 0
91 -93 0
-57 -91 93 0
-57 91 0
57 -91 0
-64 68 -90 0
-64 68 -93 0
68 -90 -93 0
64 -68 90 0
64 -68 93 0
-68 90 93 0
-64 68 0
68 -90 0
68 -93 0
-64 -90 -93 0
-30 -68 0
30 68 0
-27 -47 0
27 47 0
-66 -73 0
66 73 0
-22 -42 102 0
22 42 -102 0
42 -102 0
22 -102 0
-42 102 0
-22 102 0
-21 -40 0
-40 -102 0
-21 -102 0
21 40 102 0
